job_count = 34 ;
duration = [|5, 9|18, 8|3, 9|14, 8|2, 6|2, 3|5, 3|4, 5|3, 4|15, 2|3, 2|5, 3|19, 8|16, 2|4, 2|3, 5|6, 2|3, 7|9, 7|3, 5|2, 5|19, 6|9, 6|17, 4|13, 8|2, 1|18, 1|18, 3|10, 7|3, 3|14, 4|14, 6|17, 7|3, 2|] ;
machine_count = 2 ;
cost = [|12, 32|17, 21|16, 38|14, 23|19, 36|18, 24|16, 32|15, 31|18, 26|10, 24|18, 30|18, 39|18, 24|15, 31|18, 29|17, 34|15, 22|19, 37|17, 26|19, 21|19, 31|18, 23|17, 27|16, 23|12, 22|14, 37|16, 27|19, 38|16, 28|19, 33|12, 22|18, 30|15, 34|10, 20|] ;
deadline = [85, 85, 85, 85, 85, 85, 85, 85, 85, 85, 85, 85, 85, 85, 85, 85, 85, 85, 85, 85, 85, 85, 85, 85, 85, 85, 85, 85, 85, 85, 85, 85, 85, 85] ;
release = [0, 0, 0, 0, 0, 0, 0, 0, 0, 0, 0, 0, 0, 0, 0, 0, 0, 0, 0, 0, 0, 0, 0, 0, 0, 0, 0, 0, 0, 0, 0, 0, 0, 0] ;
resource = [|8, 8|4, 4|6, 6|1, 1|4, 4|3, 3|8, 8|9, 9|6, 6|6, 6|7, 7|9, 9|5, 5|5, 5|6, 6|8, 8|9, 9|7, 7|4, 4|4, 4|2, 2|9, 9|3, 3|1, 1|7, 7|3, 3|1, 1|1, 1|8, 8|7, 7|9, 9|4, 4|8, 8|5, 5|] ;
capacities = [10, 10] ;
